12 24 6 10
17 16 4 5 9 19 20 4 19 15 18 17 8 4 15 19 17 10 15 16 18 18 10 12 
2.42 1.87 7.93 0.78 3.93 3.48 1.82 1.8 6.06 6.94 6.02 5.99 3.95 7.47 3.35 6.31 3.76 1.87 2 3.82 1.43 7.57 0.89 3.54 
2.37 2.01 6.48 6.71 5.95 0.85 1.12 7.82 4.14 6.55 3.11 1.39 6.66 6.15 6.72 5.75 1.88 7.88 3.85 4.41 4.06 5.08 0.61 4.76 
5.85 0.73 1.22 6.84 6.97 7.18 2.85 7.86 2.79 7.34 4.23 0.63 7.12 4.45 4.7 2.99 2.3 7.95 6.47 4.42 1.57 5.36 2.25 0.75 
0.04 3.15 6.56 0.06 2.8 1.11 4.46 3.96 3.48 2.1 0.72 0.79 4.4 7.18 0.5 7.79 7.62 6.94 2.26 7.66 4.19 0.77 2.18 3.9 
3.51 6.13 7.93 1.21 0.28 2.38 3.58 5.16 0.57 3.5 7.88 6.21 1.86 6.87 4.66 1.6 1.93 1.95 7.8 3.45 0.38 3.94 6.31 4.94 
1.21 5.66 4.42 2.77 7.21 7.24 7.92 1.04 5.33 7.44 3.41 3.68 0.52 4.79 3.62 3.53 0.76 7.09 4.49 2.56 4.93 4.01 6.4 4.57 
4 4 4 4 4 4 4 4 4 4 4 4 4 4 4 4 4 4 4 4 4 4 4 4 
4.97 2.25 1.5 4.38 6.11 1.6 4.98 3.08 3.73 0.1 2.39 1.35 1.99 0 1.31 6.18 6.61 0.08 3.56 1.87 6.73 2.72 2.47 7.57 
3.46 2.11 4.2 5.82 2.28 6.82 5.92 2.82 4.36 3.47 2.98 1.92 6.13 1.52 7.99 6.97 6.9 2.82 0.49 1.05 7.02 3.72 0.82 6.37 
4.36 5.43 7.17 6.86 3.36 0.74 3.06 3.36 0.16 0.03 7.76 2.72 7.37 5.29 2.06 0.27 5.7 1.67 5.5 3.01 5.18 0.01 0.26 3.58 
0.96 4.03 6.1 1.33 3.26 4.58 0.12 4.72 5.35 5.59 7.16 7.61 0.81 7.9 5.61 1.81 2.19 1.07 5.86 7.81 0.35 0.17 0.32 6.43 
1.07 7.19 6.24 2.55 4.66 2.14 1.15 3.07 2.57 4.29 2.69 0.49 5.41 7.03 7.28 7.51 3.15 7.86 6.97 4.32 7.37 4.4 6.77 1.23 
1 1 1 1 1 1 1 1 1 1 1 1 1 1 1 1 1 1 1 1 1 1 1 1 
1 1 1 1 1 1 1 1 1 1 1 1 1 1 1 1 1 1 1 1 1 1 1 1 
1 1 1 1 1 1 1 1 1 1 1 1 1 1 1 1 1 1 1 1 1 1 1 1 
1 1 1 1 1 1 1 1 1 1 1 1 1 1 1 1 1 1 1 1 1 1 1 1 
1 1 1 1 1 1 1 1 1 1 1 1 1 1 1 1 1 1 1 1 1 1 1 1 
1 1 1 1 1 1 1 1 1 1 1 1 1 1 1 1 1 1 1 1 1 1 1 1 
1 1 1 1 1 1 1 1 1 1 1 1 1 1 1 1 1 1 1 1 1 1 1 1 
1 1 1 1 1 1 1 1 1 1 1 1 1 1 1 1 1 1 1 1 1 1 1 1 
1 1 1 1 1 1 1 1 1 1 1 1 1 1 1 1 1 1 1 1 1 1 1 1 
1 1 1 1 1 1 1 1 1 1 1 1 1 1 1 1 1 1 1 1 1 1 1 1 
1 1 1 1 1 1 1 1 1 1 1 1 1 1 1 1 1 1 1 1 1 1 1 1 
1 1 1 1 1 1 1 1 1 1 1 1 1 1 1 1 1 1 1 1 1 1 1 1 
0.01 0.01 0.01 0.01 0.01 0.01 0.01 0.01 0.01 0.01 0.01 0.01 0.01 0.01 0.01 0.01 0.01 0.01 0.01 0.01 0.01 0.01 0.01 0.01 
0.02 0.02 0.02 0.02 0.02 0.02 0.02 0.02 0.02 0.02 0.02 0.02 0.02 0.02 0.02 0.02 0.02 0.02 0.02 0.02 0.02 0.02 0.02 0.02 
0.03 0.03 0.03 0.03 0.03 0.03 0.03 0.03 0.03 0.03 0.03 0.03 0.03 0.03 0.03 0.03 0.03 0.03 0.03 0.03 0.03 0.03 0.03 0.03 
0.04 0.04 0.04 0.04 0.04 0.04 0.04 0.04 0.04 0.04 0.04 0.04 0.04 0.04 0.04 0.04 0.04 0.04 0.04 0.04 0.04 0.04 0.04 0.04 
0.05 0.05 0.05 0.05 0.05 0.05 0.05 0.05 0.05 0.05 0.05 0.05 0.05 0.05 0.05 0.05 0.05 0.05 0.05 0.05 0.05 0.05 0.05 0.05 
0.06 0.06 0.06 0.06 0.06 0.06 0.06 0.06 0.06 0.06 0.06 0.06 0.06 0.06 0.06 0.06 0.06 0.06 0.06 0.06 0.06 0.06 0.06 0.06 
0.07 0.07 0.07 0.07 0.07 0.07 0.07 0.07 0.07 0.07 0.07 0.07 0.07 0.07 0.07 0.07 0.07 0.07 0.07 0.07 0.07 0.07 0.07 0.07 
0.2 0.2 0.2 0.2 0.2 0.2 0.2 0.2 0.2 0.2 0.2 0.2 0.2 0.2 0.2 0.2 0.2 0.2 0.2 0.2 0.2 0.2 0.2 0.2 
0.4 0.4 0.4 0.4 0.4 0.4 0.4 0.4 0.4 0.4 0.4 0.4 0.4 0.4 0.4 0.4 0.4 0.4 0.4 0.4 0.4 0.4 0.4 0.4 
0.6 0.6 0.6 0.6 0.6 0.6 0.6 0.6 0.6 0.6 0.6 0.6 0.6 0.6 0.6 0.6 0.6 0.6 0.6 0.6 0.6 0.6 0.6 0.6 
0.8 0.8 0.8 0.8 0.8 0.8 0.8 0.8 0.8 0.8 0.8 0.8 0.8 0.8 0.8 0.8 0.8 0.8 0.8 0.8 0.8 0.8 0.8 0.8 
1 1 1 1 1 1 1 1 1 1 1 1 1 1 1 1 1 1 1 1 1 1 1 1 
